; PUSH cw_3 SWAP1 PUSH cw_2 SWAP1 DUP5 SWAP1 => PUSH cw_2 DUP4 PUSH cw_3 SWAP3
(set-option :produce-proofs true)
; 
(set-info :status unknown)
(declare-fun storage_t ((_ BitVec 256) (_ BitVec 256) (_ BitVec 256) (_ BitVec 256) (_ BitVec 256) Int (_ BitVec 256)) (_ BitVec 256))
(declare-fun w_2 () (_ BitVec 256))
(declare-fun w_3 () (_ BitVec 256))
(declare-fun storage_s ((_ BitVec 256) (_ BitVec 256) (_ BitVec 256) (_ BitVec 256) (_ BitVec 256) Int (_ BitVec 256)) (_ BitVec 256))
(declare-fun exc_halt_t (Int) Bool)
(declare-fun exc_halt_s (Int) Bool)
(declare-fun sc_t (Int) (_ BitVec 6))
(declare-fun stack_t ((_ BitVec 256) (_ BitVec 256) (_ BitVec 256) (_ BitVec 256) (_ BitVec 256) Int (_ BitVec 6)) (_ BitVec 256))
(declare-fun stack_s ((_ BitVec 256) (_ BitVec 256) (_ BitVec 256) (_ BitVec 256) (_ BitVec 256) Int (_ BitVec 6)) (_ BitVec 256))
(declare-fun sc_s (Int) (_ BitVec 6))
(declare-fun used_gas_t ((_ BitVec 256) (_ BitVec 256) (_ BitVec 256) (_ BitVec 256) (_ BitVec 256) Int) Int)
(declare-fun used_gas_s ((_ BitVec 256) (_ BitVec 256) (_ BitVec 256) (_ BitVec 256) (_ BitVec 256) Int) Int)
(assert
 (exists ((x_0 (_ BitVec 256)) (x_1 (_ BitVec 256)) (x_2 (_ BitVec 256)) )(let (($x7887 (forall ((w (_ BitVec 256)) )(let ((?x5492 (storage_t x_0 x_1 x_2 w_3 w_2 4 w)))
 (let ((?x8360 (storage_s x_0 x_1 x_2 w_3 w_2 6 w)))
 (= ?x8360 ?x5492))))
 ))
 (let (($x7854 (exc_halt_t 4)))
 (let (($x7121 (exc_halt_s 6)))
 (let (($x10095 (= $x7121 $x7854)))
 (let (($x2992 (forall ((n (_ BitVec 6)) )(let ((?x7495 (sc_t 4)))
 (let (($x6247 (bvsle ?x7495 n)))
 (let ((?x3053 (stack_t x_0 x_1 x_2 w_3 w_2 4 n)))
 (let ((?x822 (stack_s x_0 x_1 x_2 w_3 w_2 6 n)))
 (let (($x2212 (= ?x822 ?x3053)))
 (or $x2212 $x6247)))))))
 ))
 (let ((?x7495 (sc_t 4)))
 (let ((?x9114 (sc_s 6)))
 (let (($x2362 (= ?x9114 ?x7495)))
 (let ((?x8277 (used_gas_t x_0 x_1 x_2 w_3 w_2 0)))
 (let ((?x2122 (used_gas_s x_0 x_1 x_2 w_3 w_2 0)))
 (let (($x503 (= ?x2122 ?x8277)))
 (let (($x10703 (forall ((w (_ BitVec 256)) )(let ((?x2800 (storage_t x_0 x_1 x_2 w_3 w_2 0 w)))
 (let ((?x3072 (storage_s x_0 x_1 x_2 w_3 w_2 0 w)))
 (= ?x3072 ?x2800))))
 ))
 (let (($x56 (exc_halt_t 0)))
 (let (($x57 (exc_halt_s 0)))
 (let (($x58 (= $x57 $x56)))
 (let (($x5458 (forall ((n (_ BitVec 6)) )(let ((?x1040 (stack_t x_0 x_1 x_2 w_3 w_2 0 n)))
 (let ((?x4465 (stack_s x_0 x_1 x_2 w_3 w_2 0 n)))
 (let (($x8965 (= ?x4465 ?x1040)))
 (let ((?x63 (sc_t 0)))
 (let (($x3918 (bvsle ?x63 n)))
 (or $x3918 $x8965)))))))
 ))
 (let ((?x63 (sc_t 0)))
 (let ((?x72 (sc_s 0)))
 (let (($x73 (= ?x72 ?x63)))
 (let (($x6891 (= $x7854 (or (exc_halt_t 3) (not (bvsle (_ bv0 6) (bvadd (_ bv60 6) (sc_t 3))))))))
 (let (($x3267 (forall ((w (_ BitVec 256)) )(let ((?x7586 (storage_t x_0 x_1 x_2 w_3 w_2 3 w)))
 (let ((?x5492 (storage_t x_0 x_1 x_2 w_3 w_2 4 w)))
 (= ?x5492 ?x7586))))
 ))
 (let (($x11363 (forall ((n (_ BitVec 6)) )(let ((?x10706 (stack_t x_0 x_1 x_2 w_3 w_2 3 n)))
 (let ((?x3053 (stack_t x_0 x_1 x_2 w_3 w_2 4 n)))
 (or (= ?x3053 ?x10706) (bvsle (bvadd (_ bv60 6) (sc_t 3)) n)))))
 ))
 (let ((?x10013 (sc_t 3)))
 (let (($x1394 (= ?x7495 ?x10013)))
 (let (($x8776 (= (used_gas_t x_0 x_1 x_2 w_3 w_2 4) (+ 3 (used_gas_t x_0 x_1 x_2 w_3 w_2 3)))))
 (let (($x6130 (= (stack_t x_0 x_1 x_2 w_3 w_2 4 (bvadd (_ bv62 6) ?x7495)) (stack_t x_0 x_1 x_2 w_3 w_2 3 (bvadd (_ bv62 6) ?x10013)))))
 (let (($x4946 (= (stack_t x_0 x_1 x_2 w_3 w_2 4 (bvadd (_ bv61 6) ?x7495)) (stack_t x_0 x_1 x_2 w_3 w_2 3 (bvadd (_ bv61 6) ?x10013)))))
 (let (($x6068 (= (stack_t x_0 x_1 x_2 w_3 w_2 4 (bvadd (_ bv60 6) ?x7495)) (stack_t x_0 x_1 x_2 w_3 w_2 3 (bvadd (_ bv63 6) ?x10013)))))
 (let (($x5118 (= (stack_t x_0 x_1 x_2 w_3 w_2 4 (bvadd (_ bv63 6) ?x7495)) (stack_t x_0 x_1 x_2 w_3 w_2 3 (bvadd (_ bv60 6) ?x10013)))))
 (let (($x7582 (not (= ((_ extract 6 6) (bvadd (_ bv1 7) (concat (_ bv0 1) (sc_t 2)))) (_ bv0 1)))))
 (let (($x6842 (exc_halt_t 2)))
 (let (($x9131 (exc_halt_t 3)))
 (let (($x9090 (= $x9131 (or $x6842 $x7582))))
 (let (($x10482 (forall ((w (_ BitVec 256)) )(let ((?x7974 (storage_t x_0 x_1 x_2 w_3 w_2 2 w)))
 (let ((?x7586 (storage_t x_0 x_1 x_2 w_3 w_2 3 w)))
 (= ?x7586 ?x7974))))
 ))
 (let (($x9991 (forall ((n (_ BitVec 6)) )(let ((?x9666 (sc_t 2)))
 (let (($x6374 (bvsle ?x9666 n)))
 (let ((?x10033 (stack_t x_0 x_1 x_2 w_3 w_2 2 n)))
 (let ((?x10706 (stack_t x_0 x_1 x_2 w_3 w_2 3 n)))
 (or (= ?x10706 ?x10033) $x6374))))))
 ))
 (let (($x230 (= ?x10013 (bvadd (_ bv1 6) (sc_t 2)))))
 (let ((?x1805 (used_gas_t x_0 x_1 x_2 w_3 w_2 3)))
 (let (($x11030 (exc_halt_t 1)))
 (let (($x8403 (not (= ((_ extract 6 6) (bvadd (_ bv1 7) (concat (_ bv0 1) (sc_t 1)))) (_ bv0 1)))))
 (let (($x8971 (forall ((w (_ BitVec 256)) )(let ((?x3994 (storage_t x_0 x_1 x_2 w_3 w_2 1 w)))
 (let ((?x7974 (storage_t x_0 x_1 x_2 w_3 w_2 2 w)))
 (= ?x7974 ?x3994))))
 ))
 (let (($x6344 (forall ((n (_ BitVec 6)) )(let ((?x8023 (stack_t x_0 x_1 x_2 w_3 w_2 1 n)))
 (let ((?x10033 (stack_t x_0 x_1 x_2 w_3 w_2 2 n)))
 (or (bvsle (bvadd (_ bv60 6) (sc_t 1)) n) (= ?x10033 ?x8023)))))
 ))
 (let ((?x9666 (sc_t 2)))
 (let (($x9818 (= ?x9666 (bvadd (_ bv1 6) (sc_t 1)))))
 (let ((?x9871 (used_gas_t x_0 x_1 x_2 w_3 w_2 2)))
 (let (($x11266 (= (stack_t x_0 x_1 x_2 w_3 w_2 2 (bvadd (_ bv63 6) (sc_t 1))) (stack_t x_0 x_1 x_2 w_3 w_2 1 (bvadd (_ bv63 6) (sc_t 1))))))
 (let (($x8939 (= (stack_t x_0 x_1 x_2 w_3 w_2 2 (bvadd (_ bv62 6) (sc_t 1))) (stack_t x_0 x_1 x_2 w_3 w_2 1 (bvadd (_ bv62 6) (sc_t 1))))))
 (let (($x1326 (= (stack_t x_0 x_1 x_2 w_3 w_2 2 (bvadd (_ bv61 6) (sc_t 1))) (stack_t x_0 x_1 x_2 w_3 w_2 1 (bvadd (_ bv61 6) (sc_t 1))))))
 (let ((?x4135 (sc_t 1)))
 (let ((?x755 (bvadd (_ bv60 6) ?x4135)))
 (let ((?x5705 (stack_t x_0 x_1 x_2 w_3 w_2 1 ?x755)))
 (let (($x11133 (= (stack_t x_0 x_1 x_2 w_3 w_2 2 (bvadd (_ bv63 6) ?x9666)) ?x5705)))
 (let (($x8407 (= $x11030 (or $x56 (not (= ((_ extract 6 6) (bvadd (_ bv1 7) (concat (_ bv0 1) ?x63))) (_ bv0 1)))))))
 (let (($x8215 (forall ((w (_ BitVec 256)) )(let ((?x2800 (storage_t x_0 x_1 x_2 w_3 w_2 0 w)))
 (let ((?x3994 (storage_t x_0 x_1 x_2 w_3 w_2 1 w)))
 (= ?x3994 ?x2800))))
 ))
 (let (($x4149 (forall ((n (_ BitVec 6)) )(let ((?x1040 (stack_t x_0 x_1 x_2 w_3 w_2 0 n)))
 (let ((?x8023 (stack_t x_0 x_1 x_2 w_3 w_2 1 n)))
 (let ((?x63 (sc_t 0)))
 (let (($x3918 (bvsle ?x63 n)))
 (or $x3918 (= ?x8023 ?x1040)))))))
 ))
 (let (($x4431 (= ?x4135 (bvadd (_ bv1 6) ?x63))))
 (let (($x7952 (= $x7121 (or (exc_halt_s 5) (not (bvsle (_ bv0 6) (bvadd (_ bv62 6) (sc_s 5))))))))
 (let (($x9543 (forall ((w (_ BitVec 256)) )(let ((?x11448 (storage_s x_0 x_1 x_2 w_3 w_2 5 w)))
 (let ((?x8360 (storage_s x_0 x_1 x_2 w_3 w_2 6 w)))
 (= ?x8360 ?x11448))))
 ))
 (let (($x502 (forall ((n (_ BitVec 6)) )(let ((?x458 (stack_s x_0 x_1 x_2 w_3 w_2 5 n)))
 (let ((?x822 (stack_s x_0 x_1 x_2 w_3 w_2 6 n)))
 (let ((?x4319 (sc_s 5)))
 (let ((?x10710 (bvadd (_ bv62 6) ?x4319)))
 (let (($x2283 (bvsle ?x10710 n)))
 (or $x2283 (= ?x822 ?x458))))))))
 ))
 (let ((?x4319 (sc_s 5)))
 (let (($x11055 (= ?x9114 ?x4319)))
 (let (($x4368 (= (used_gas_s x_0 x_1 x_2 w_3 w_2 6) (+ 3 (used_gas_s x_0 x_1 x_2 w_3 w_2 5)))))
 (let ((?x4243 (bvadd (_ bv63 6) ?x4319)))
 (let ((?x10702 (stack_s x_0 x_1 x_2 w_3 w_2 5 ?x4243)))
 (let (($x5014 (= (stack_s x_0 x_1 x_2 w_3 w_2 6 (bvadd (_ bv62 6) ?x9114)) ?x10702)))
 (let (($x6115 (= (stack_s x_0 x_1 x_2 w_3 w_2 6 (bvadd (_ bv63 6) ?x9114)) (stack_s x_0 x_1 x_2 w_3 w_2 5 (bvadd (_ bv62 6) ?x4319)))))
 (let (($x9175 (exc_halt_s 4)))
 (let (($x1255 (not (= ((_ extract 6 6) (bvadd (_ bv1 7) (concat (_ bv0 1) (sc_s 4)))) (_ bv0 1)))))
 (let (($x1862 (exc_halt_s 5)))
 (let (($x1410 (forall ((w (_ BitVec 256)) )(let ((?x1356 (storage_s x_0 x_1 x_2 w_3 w_2 4 w)))
 (let ((?x11448 (storage_s x_0 x_1 x_2 w_3 w_2 5 w)))
 (= ?x11448 ?x1356))))
 ))
 (let (($x3326 (forall ((n (_ BitVec 6)) )(let ((?x7567 (stack_s x_0 x_1 x_2 w_3 w_2 4 n)))
 (let ((?x458 (stack_s x_0 x_1 x_2 w_3 w_2 5 n)))
 (or (= ?x458 ?x7567) (bvsle (bvadd (_ bv59 6) (sc_s 4)) n)))))
 ))
 (let (($x2529 (= ?x4319 (bvadd (_ bv1 6) (sc_s 4)))))
 (let ((?x2939 (used_gas_s x_0 x_1 x_2 w_3 w_2 5)))
 (let ((?x9433 (sc_s 4)))
 (let ((?x11263 (bvadd (_ bv63 6) ?x9433)))
 (let ((?x2282 (stack_s x_0 x_1 x_2 w_3 w_2 4 ?x11263)))
 (let ((?x4876 (bvadd (_ bv62 6) ?x9433)))
 (let ((?x482 (stack_s x_0 x_1 x_2 w_3 w_2 4 ?x4876)))
 (let (($x4360 (= (stack_s x_0 x_1 x_2 w_3 w_2 5 (bvadd (_ bv61 6) ?x9433)) (stack_s x_0 x_1 x_2 w_3 w_2 4 (bvadd (_ bv61 6) ?x9433)))))
 (let (($x9478 (= (stack_s x_0 x_1 x_2 w_3 w_2 5 (bvadd (_ bv60 6) ?x9433)) (stack_s x_0 x_1 x_2 w_3 w_2 4 (bvadd (_ bv60 6) ?x9433)))))
 (let ((?x11992 (bvadd (_ bv59 6) ?x9433)))
 (let ((?x7734 (stack_s x_0 x_1 x_2 w_3 w_2 4 ?x11992)))
 (let (($x7924 (= $x9175 (or (exc_halt_s 3) (not (bvsle (_ bv0 6) (bvadd (_ bv62 6) (sc_s 3))))))))
 (let (($x1148 (forall ((w (_ BitVec 256)) )(let ((?x9547 (storage_s x_0 x_1 x_2 w_3 w_2 3 w)))
 (let ((?x1356 (storage_s x_0 x_1 x_2 w_3 w_2 4 w)))
 (= ?x1356 ?x9547))))
 ))
 (let (($x4055 (forall ((n (_ BitVec 6)) )(let ((?x3851 (sc_s 3)))
 (let ((?x6235 (bvadd (_ bv62 6) ?x3851)))
 (let (($x11846 (bvsle ?x6235 n)))
 (let ((?x4412 (stack_s x_0 x_1 x_2 w_3 w_2 3 n)))
 (let ((?x7567 (stack_s x_0 x_1 x_2 w_3 w_2 4 n)))
 (or (= ?x7567 ?x4412) $x11846)))))))
 ))
 (let ((?x3851 (sc_s 3)))
 (let (($x7570 (= ?x9433 ?x3851)))
 (let ((?x4254 (used_gas_s x_0 x_1 x_2 w_3 w_2 4)))
 (let (($x6844 (= ?x482 (stack_s x_0 x_1 x_2 w_3 w_2 3 (bvadd (_ bv63 6) ?x3851)))))
 (let (($x2278 (= ?x2282 (stack_s x_0 x_1 x_2 w_3 w_2 3 (bvadd (_ bv62 6) ?x3851)))))
 (let (($x5066 (not (= ((_ extract 6 6) (bvadd (_ bv1 7) (concat (_ bv0 1) (sc_s 2)))) (_ bv0 1)))))
 (let (($x10052 (exc_halt_s 2)))
 (let (($x8103 (exc_halt_s 3)))
 (let (($x11394 (= $x8103 (or $x10052 $x5066))))
 (let (($x9990 (forall ((w (_ BitVec 256)) )(let ((?x3776 (storage_s x_0 x_1 x_2 w_3 w_2 2 w)))
 (let ((?x9547 (storage_s x_0 x_1 x_2 w_3 w_2 3 w)))
 (= ?x9547 ?x3776))))
 ))
 (let (($x11425 (forall ((n (_ BitVec 6)) )(let ((?x2272 (sc_s 2)))
 (let (($x10361 (bvsle ?x2272 n)))
 (let ((?x7675 (stack_s x_0 x_1 x_2 w_3 w_2 2 n)))
 (let ((?x4412 (stack_s x_0 x_1 x_2 w_3 w_2 3 n)))
 (or (= ?x4412 ?x7675) $x10361))))))
 ))
 (let (($x260 (= ?x3851 (bvadd (_ bv1 6) (sc_s 2)))))
 (let ((?x5432 (used_gas_s x_0 x_1 x_2 w_3 w_2 3)))
 (let (($x6078 (= $x10052 (or (exc_halt_s 1) (not (bvsle (_ bv0 6) (bvadd (_ bv62 6) (sc_s 1))))))))
 (let (($x9283 (forall ((w (_ BitVec 256)) )(let ((?x6873 (storage_s x_0 x_1 x_2 w_3 w_2 1 w)))
 (let ((?x3776 (storage_s x_0 x_1 x_2 w_3 w_2 2 w)))
 (= ?x3776 ?x6873))))
 ))
 (let (($x11934 (forall ((n (_ BitVec 6)) )(let ((?x10714 (stack_s x_0 x_1 x_2 w_3 w_2 1 n)))
 (let ((?x7675 (stack_s x_0 x_1 x_2 w_3 w_2 2 n)))
 (let ((?x154 (sc_s 1)))
 (let ((?x6387 (bvadd (_ bv62 6) ?x154)))
 (let (($x1752 (bvsle ?x6387 n)))
 (or $x1752 (= ?x7675 ?x10714))))))))
 ))
 (let ((?x154 (sc_s 1)))
 (let ((?x2272 (sc_s 2)))
 (let (($x6737 (= ?x2272 ?x154)))
 (let ((?x6324 (used_gas_s x_0 x_1 x_2 w_3 w_2 2)))
 (let (($x1316 (= (stack_s x_0 x_1 x_2 w_3 w_2 2 (bvadd (_ bv62 6) ?x2272)) (stack_s x_0 x_1 x_2 w_3 w_2 1 (bvadd (_ bv63 6) ?x154)))))
 (let (($x7728 (= (stack_s x_0 x_1 x_2 w_3 w_2 2 (bvadd (_ bv63 6) ?x2272)) (stack_s x_0 x_1 x_2 w_3 w_2 1 (bvadd (_ bv62 6) ?x154)))))
 (let (($x8780 (exc_halt_s 1)))
 (let (($x11279 (= $x8780 (or $x57 (not (= ((_ extract 6 6) (bvadd (_ bv1 7) (concat (_ bv0 1) ?x72))) (_ bv0 1)))))))
 (let (($x10940 (forall ((w (_ BitVec 256)) )(let ((?x3072 (storage_s x_0 x_1 x_2 w_3 w_2 0 w)))
 (let ((?x6873 (storage_s x_0 x_1 x_2 w_3 w_2 1 w)))
 (= ?x6873 ?x3072))))
 ))
 (let (($x2378 (forall ((n (_ BitVec 6)) )(let ((?x72 (sc_s 0)))
 (let (($x5715 (bvsle ?x72 n)))
 (let ((?x4465 (stack_s x_0 x_1 x_2 w_3 w_2 0 n)))
 (let ((?x10714 (stack_s x_0 x_1 x_2 w_3 w_2 1 n)))
 (or (= ?x10714 ?x4465) $x5715))))))
 ))
 (let (($x11116 (= ?x154 (bvadd (_ bv1 6) ?x72))))
 (let (($x8985 (forall ((w (_ BitVec 256)) )(let ((?x3072 (storage_s x_0 x_1 x_2 w_3 w_2 0 w)))
 (= ?x3072 (_ bv0 256))))
 ))
 (let (($x2965 (= ?x2122 0)))
 (let (($x2113 (not $x57)))
 (let (($x1059 (= (stack_s x_0 x_1 x_2 w_3 w_2 0 (_ bv2 6)) x_2)))
 (let (($x1342 (= (stack_s x_0 x_1 x_2 w_3 w_2 0 (_ bv1 6)) x_1)))
 (let (($x11126 (= (stack_s x_0 x_1 x_2 w_3 w_2 0 (_ bv0 6)) x_0)))
 (let (($x9108 (= ?x72 (_ bv3 6))))
 (and $x9108 $x11126 $x1342 $x1059 $x2113 $x2965 $x8985 (= (stack_s x_0 x_1 x_2 w_3 w_2 1 ?x72) w_3) (= (used_gas_s x_0 x_1 x_2 w_3 w_2 1) (+ 3 ?x2122)) $x11116 $x2378 $x10940 $x11279 $x7728 $x1316 (= ?x6324 (+ 3 (used_gas_s x_0 x_1 x_2 w_3 w_2 1))) $x6737 $x11934 $x9283 $x6078 (= (stack_s x_0 x_1 x_2 w_3 w_2 3 ?x2272) w_2) (= ?x5432 (+ 3 ?x6324)) $x260 $x11425 $x9990 $x11394 $x2278 $x6844 (= ?x4254 (+ 3 ?x5432)) $x7570 $x4055 $x1148 $x7924 (= ?x10702 ?x7734) (= (stack_s x_0 x_1 x_2 w_3 w_2 5 ?x11992) ?x7734) $x9478 $x4360 (= (stack_s x_0 x_1 x_2 w_3 w_2 5 ?x4876) ?x482) (= (stack_s x_0 x_1 x_2 w_3 w_2 5 ?x11263) ?x2282) (= ?x2939 (+ 3 ?x4254)) $x2529 $x3326 $x1410 (= $x1862 (or $x1255 (not (bvsle (_ bv0 6) ?x11992)) $x9175)) $x6115 $x5014 $x4368 $x11055 $x502 $x9543 $x7952 (= (stack_t x_0 x_1 x_2 w_3 w_2 1 ?x63) w_2) (= (used_gas_t x_0 x_1 x_2 w_3 w_2 1) (+ 3 ?x8277)) $x4431 $x4149 $x8215 $x8407 $x11133 (= (stack_t x_0 x_1 x_2 w_3 w_2 2 ?x755) ?x5705) $x1326 $x8939 $x11266 (= ?x9871 (+ 3 (used_gas_t x_0 x_1 x_2 w_3 w_2 1))) $x9818 $x6344 $x8971 (= $x6842 (or (not (bvsle (_ bv0 6) ?x755)) $x8403 $x11030)) (= (stack_t x_0 x_1 x_2 w_3 w_2 3 ?x9666) w_3) (= ?x1805 (+ 3 ?x9871)) $x230 $x9991 $x10482 $x9090 $x5118 $x6068 $x4946 $x6130 $x8776 $x1394 $x11363 $x3267 $x6891 $x73 $x5458 $x58 $x10703 $x503 (not (and $x2362 $x2992 $x10095 $x7887))))))))))))))))))))))))))))))))))))))))))))))))))))))))))))))))))))))))))))))))))))))))))))))))))))))))))))))))))))))))))
 )
(check-sat)
(get-proof)
